p cnf 301 1019
c p weight -119 1 0
c p weight 119 -1 0
c p weight 123 6.12323399573676603586882014729198302312846062338790031898128063403419218957424163818359375E-17 0
c p weight -123 1 0
c p weight 124 1 0
c p weight -124 1 0
c p weight -121 1 0
c p weight 121 -1 0
c p weight -125 1 0
c p weight 125 -1 0
c p weight -127 1 0
c p weight 127 -1 0
c p weight -130 1 0
c p weight 130 -1 0
c p weight -133 1 0
c p weight 133 -1 0
c p weight -136 1 0
c p weight 136 -1 0
c p weight -139 1 0
c p weight 139 -1 0
c p weight -142 1 0
c p weight 142 -1 0
c p weight -145 1 0
c p weight 145 -1 0
c p weight -148 1 0
c p weight 148 -1 0
c p weight -151 1 0
c p weight 151 -1 0
c p weight -154 1 0
c p weight 154 -1 0
c p weight -157 1 0
c p weight 157 -1 0
c p weight -160 1 0
c p weight 160 -1 0
c p weight -163 1 0
c p weight 163 -1 0
c p weight -166 1 0
c p weight 166 -1 0
c p weight -169 1 0
c p weight 169 -1 0
c p weight -172 1 0
c p weight 172 -1 0
c p weight -175 1 0
c p weight 175 -1 0
c p weight -178 1 0
c p weight 178 -1 0
c p weight -181 1 0
c p weight 181 -1 0
c p weight -184 1 0
c p weight 184 -1 0
c p weight -187 1 0
c p weight 187 -1 0
c p weight -190 1 0
c p weight 190 -1 0
c p weight -193 1 0
c p weight 193 -1 0
c p weight -196 1 0
c p weight 196 -1 0
c p weight -199 1 0
c p weight 199 -1 0
c p weight -202 1 0
c p weight 202 -1 0
c p weight -205 1 0
c p weight 205 -1 0
c p weight -208 1 0
c p weight 208 -1 0
c p weight -211 1 0
c p weight 211 -1 0
c p weight -214 1 0
c p weight 214 -1 0
c p weight -217 1 0
c p weight 217 -1 0
c p weight -220 1 0
c p weight 220 -1 0
c p weight -223 1 0
c p weight 223 -1 0
c p weight -226 1 0
c p weight 226 -1 0
c p weight -229 1 0
c p weight 229 -1 0
c p weight -232 1 0
c p weight 232 -1 0
c p weight -235 1 0
c p weight 235 -1 0
c p weight -238 1 0
c p weight 238 -1 0
c p weight -241 1 0
c p weight 241 -1 0
c p weight -244 1 0
c p weight 244 -1 0
c p weight -247 1 0
c p weight 247 -1 0
c p weight -250 1 0
c p weight 250 -1 0
c p weight -253 1 0
c p weight 253 -1 0
c p weight -256 1 0
c p weight 256 -1 0
c p weight -259 1 0
c p weight 259 -1 0
c p weight -262 1 0
c p weight 262 -1 0
c p weight -265 1 0
c p weight 265 -1 0
c p weight -268 1 0
c p weight 268 -1 0
c p weight -271 1 0
c p weight 271 -1 0
c p weight -274 1 0
c p weight 274 -1 0
c p weight -277 1 0
c p weight 277 -1 0
c p weight -280 1 0
c p weight 280 -1 0
c p weight -283 1 0
c p weight 283 -1 0
c p weight -286 1 0
c p weight 286 -1 0
c p weight -289 1 0
c p weight 289 -1 0
c p weight -292 1 0
c p weight 292 -1 0
c p weight -295 1 0
c p weight 295 -1 0
c p weight -298 1 0
c p weight 298 -1 0
c p weight 301 0.5 0
c p weight -301 1 0
301 0
-117 0
-115 0
-113 0
-111 0
-109 0
-107 0
-105 0
-103 0
-101 0
-99 0
-97 0
-95 0
-93 0
-91 0
-89 0
-87 0
-85 0
-83 0
-81 0
-79 0
-77 0
-75 0
-73 0
-71 0
-69 0
-67 0
-65 0
-63 0
-61 0
-59 0
-57 0
-55 0
-53 0
-51 0
-49 0
-47 0
-45 0
-43 0
-41 0
-39 0
-37 0
-35 0
-33 0
-31 0
-29 0
-27 0
-25 0
-23 0
-21 0
-19 0
-17 0
-15 0
-13 0
-11 0
-9 0
-7 0
-5 0
-3 0
-1 0
-119 117 0
-119 118 0
119 -117 -118 0
120 117 -118 0
120 -117 118 0
-120 117 118 0
-120 -117 -118 0
-121 122 0
-121 120 0
-121 -117 0
121 -122 117 -120 0
122 -117 120 0
-122 117 120 0
-123 120 0
122 -123 -117 0
-122 -123 117 0
122 123 117 -120 0
-122 123 -117 -120 0
-124 120 0
122 -124 117 0
-122 -124 -117 0
122 124 -117 -120 0
-122 124 117 -120 0
-125 122 0
-125 120 0
125 -122 -120 0
126 122 -120 0
126 -122 120 0
-126 122 120 0
-126 -122 -120 0
-127 122 0
-127 116 0
-127 115 -126 0
-127 -115 126 0
127 -122 115 126 -116 0
127 -122 -115 -126 -116 0
129 122 -115 0
129 -122 115 0
-129 122 115 0
-129 -122 -115 0
128 126 -116 0
128 -126 116 0
-128 126 116 0
-128 -126 -116 0
-130 129 0
-130 114 0
-130 113 -116 0
-130 -113 116 0
130 -129 113 116 -114 0
130 -129 -113 -116 -114 0
132 129 -113 0
132 -129 113 0
-132 129 113 0
-132 -129 -113 0
131 116 -114 0
131 -116 114 0
-131 116 114 0
-131 -116 -114 0
-133 132 0
-133 112 0
-133 111 -114 0
-133 -111 114 0
133 -132 111 114 -112 0
133 -132 -111 -114 -112 0
135 132 -111 0
135 -132 111 0
-135 132 111 0
-135 -132 -111 0
134 114 -112 0
134 -114 112 0
-134 114 112 0
-134 -114 -112 0
-136 135 0
-136 110 0
-136 109 -112 0
-136 -109 112 0
136 -135 109 112 -110 0
136 -135 -109 -112 -110 0
138 135 -109 0
138 -135 109 0
-138 135 109 0
-138 -135 -109 0
137 112 -110 0
137 -112 110 0
-137 112 110 0
-137 -112 -110 0
-139 138 0
-139 108 0
-139 107 -110 0
-139 -107 110 0
139 -138 107 110 -108 0
139 -138 -107 -110 -108 0
141 138 -107 0
141 -138 107 0
-141 138 107 0
-141 -138 -107 0
140 110 -108 0
140 -110 108 0
-140 110 108 0
-140 -110 -108 0
-142 141 0
-142 106 0
-142 105 -108 0
-142 -105 108 0
142 -141 105 108 -106 0
142 -141 -105 -108 -106 0
144 141 -105 0
144 -141 105 0
-144 141 105 0
-144 -141 -105 0
143 108 -106 0
143 -108 106 0
-143 108 106 0
-143 -108 -106 0
-145 144 0
-145 104 0
-145 103 -106 0
-145 -103 106 0
145 -144 103 106 -104 0
145 -144 -103 -106 -104 0
147 144 -103 0
147 -144 103 0
-147 144 103 0
-147 -144 -103 0
146 106 -104 0
146 -106 104 0
-146 106 104 0
-146 -106 -104 0
-148 147 0
-148 102 0
-148 101 -104 0
-148 -101 104 0
148 -147 101 104 -102 0
148 -147 -101 -104 -102 0
150 147 -101 0
150 -147 101 0
-150 147 101 0
-150 -147 -101 0
149 104 -102 0
149 -104 102 0
-149 104 102 0
-149 -104 -102 0
-151 150 0
-151 100 0
-151 99 -102 0
-151 -99 102 0
151 -150 99 102 -100 0
151 -150 -99 -102 -100 0
153 150 -99 0
153 -150 99 0
-153 150 99 0
-153 -150 -99 0
152 102 -100 0
152 -102 100 0
-152 102 100 0
-152 -102 -100 0
-154 153 0
-154 98 0
-154 97 -100 0
-154 -97 100 0
154 -153 97 100 -98 0
154 -153 -97 -100 -98 0
156 153 -97 0
156 -153 97 0
-156 153 97 0
-156 -153 -97 0
155 100 -98 0
155 -100 98 0
-155 100 98 0
-155 -100 -98 0
-157 156 0
-157 96 0
-157 95 -98 0
-157 -95 98 0
157 -156 95 98 -96 0
157 -156 -95 -98 -96 0
159 156 -95 0
159 -156 95 0
-159 156 95 0
-159 -156 -95 0
158 98 -96 0
158 -98 96 0
-158 98 96 0
-158 -98 -96 0
-160 159 0
-160 94 0
-160 93 -96 0
-160 -93 96 0
160 -159 93 96 -94 0
160 -159 -93 -96 -94 0
162 159 -93 0
162 -159 93 0
-162 159 93 0
-162 -159 -93 0
161 96 -94 0
161 -96 94 0
-161 96 94 0
-161 -96 -94 0
-163 162 0
-163 92 0
-163 91 -94 0
-163 -91 94 0
163 -162 91 94 -92 0
163 -162 -91 -94 -92 0
165 162 -91 0
165 -162 91 0
-165 162 91 0
-165 -162 -91 0
164 94 -92 0
164 -94 92 0
-164 94 92 0
-164 -94 -92 0
-166 165 0
-166 90 0
-166 89 -92 0
-166 -89 92 0
166 -165 89 92 -90 0
166 -165 -89 -92 -90 0
168 165 -89 0
168 -165 89 0
-168 165 89 0
-168 -165 -89 0
167 92 -90 0
167 -92 90 0
-167 92 90 0
-167 -92 -90 0
-169 168 0
-169 88 0
-169 87 -90 0
-169 -87 90 0
169 -168 87 90 -88 0
169 -168 -87 -90 -88 0
171 168 -87 0
171 -168 87 0
-171 168 87 0
-171 -168 -87 0
170 90 -88 0
170 -90 88 0
-170 90 88 0
-170 -90 -88 0
-172 171 0
-172 86 0
-172 85 -88 0
-172 -85 88 0
172 -171 85 88 -86 0
172 -171 -85 -88 -86 0
174 171 -85 0
174 -171 85 0
-174 171 85 0
-174 -171 -85 0
173 88 -86 0
173 -88 86 0
-173 88 86 0
-173 -88 -86 0
-175 174 0
-175 84 0
-175 83 -86 0
-175 -83 86 0
175 -174 83 86 -84 0
175 -174 -83 -86 -84 0
177 174 -83 0
177 -174 83 0
-177 174 83 0
-177 -174 -83 0
176 86 -84 0
176 -86 84 0
-176 86 84 0
-176 -86 -84 0
-178 177 0
-178 82 0
-178 81 -84 0
-178 -81 84 0
178 -177 81 84 -82 0
178 -177 -81 -84 -82 0
180 177 -81 0
180 -177 81 0
-180 177 81 0
-180 -177 -81 0
179 84 -82 0
179 -84 82 0
-179 84 82 0
-179 -84 -82 0
-181 180 0
-181 80 0
-181 79 -82 0
-181 -79 82 0
181 -180 79 82 -80 0
181 -180 -79 -82 -80 0
183 180 -79 0
183 -180 79 0
-183 180 79 0
-183 -180 -79 0
182 82 -80 0
182 -82 80 0
-182 82 80 0
-182 -82 -80 0
-184 183 0
-184 78 0
-184 77 -80 0
-184 -77 80 0
184 -183 77 80 -78 0
184 -183 -77 -80 -78 0
186 183 -77 0
186 -183 77 0
-186 183 77 0
-186 -183 -77 0
185 80 -78 0
185 -80 78 0
-185 80 78 0
-185 -80 -78 0
-187 186 0
-187 76 0
-187 75 -78 0
-187 -75 78 0
187 -186 75 78 -76 0
187 -186 -75 -78 -76 0
189 186 -75 0
189 -186 75 0
-189 186 75 0
-189 -186 -75 0
188 78 -76 0
188 -78 76 0
-188 78 76 0
-188 -78 -76 0
-190 189 0
-190 74 0
-190 73 -76 0
-190 -73 76 0
190 -189 73 76 -74 0
190 -189 -73 -76 -74 0
192 189 -73 0
192 -189 73 0
-192 189 73 0
-192 -189 -73 0
191 76 -74 0
191 -76 74 0
-191 76 74 0
-191 -76 -74 0
-193 192 0
-193 72 0
-193 71 -74 0
-193 -71 74 0
193 -192 71 74 -72 0
193 -192 -71 -74 -72 0
195 192 -71 0
195 -192 71 0
-195 192 71 0
-195 -192 -71 0
194 74 -72 0
194 -74 72 0
-194 74 72 0
-194 -74 -72 0
-196 195 0
-196 70 0
-196 69 -72 0
-196 -69 72 0
196 -195 69 72 -70 0
196 -195 -69 -72 -70 0
198 195 -69 0
198 -195 69 0
-198 195 69 0
-198 -195 -69 0
197 72 -70 0
197 -72 70 0
-197 72 70 0
-197 -72 -70 0
-199 198 0
-199 68 0
-199 67 -70 0
-199 -67 70 0
199 -198 67 70 -68 0
199 -198 -67 -70 -68 0
201 198 -67 0
201 -198 67 0
-201 198 67 0
-201 -198 -67 0
200 70 -68 0
200 -70 68 0
-200 70 68 0
-200 -70 -68 0
-202 201 0
-202 66 0
-202 65 -68 0
-202 -65 68 0
202 -201 65 68 -66 0
202 -201 -65 -68 -66 0
204 201 -65 0
204 -201 65 0
-204 201 65 0
-204 -201 -65 0
203 68 -66 0
203 -68 66 0
-203 68 66 0
-203 -68 -66 0
-205 204 0
-205 64 0
-205 63 -66 0
-205 -63 66 0
205 -204 63 66 -64 0
205 -204 -63 -66 -64 0
207 204 -63 0
207 -204 63 0
-207 204 63 0
-207 -204 -63 0
206 66 -64 0
206 -66 64 0
-206 66 64 0
-206 -66 -64 0
-208 207 0
-208 62 0
-208 61 -64 0
-208 -61 64 0
208 -207 61 64 -62 0
208 -207 -61 -64 -62 0
210 207 -61 0
210 -207 61 0
-210 207 61 0
-210 -207 -61 0
209 64 -62 0
209 -64 62 0
-209 64 62 0
-209 -64 -62 0
-211 210 0
-211 60 0
-211 59 -62 0
-211 -59 62 0
211 -210 59 62 -60 0
211 -210 -59 -62 -60 0
213 210 -59 0
213 -210 59 0
-213 210 59 0
-213 -210 -59 0
212 62 -60 0
212 -62 60 0
-212 62 60 0
-212 -62 -60 0
-214 213 0
-214 58 0
-214 57 -60 0
-214 -57 60 0
214 -213 57 60 -58 0
214 -213 -57 -60 -58 0
216 213 -57 0
216 -213 57 0
-216 213 57 0
-216 -213 -57 0
215 60 -58 0
215 -60 58 0
-215 60 58 0
-215 -60 -58 0
-217 216 0
-217 56 0
-217 55 -58 0
-217 -55 58 0
217 -216 55 58 -56 0
217 -216 -55 -58 -56 0
219 216 -55 0
219 -216 55 0
-219 216 55 0
-219 -216 -55 0
218 58 -56 0
218 -58 56 0
-218 58 56 0
-218 -58 -56 0
-220 219 0
-220 54 0
-220 53 -56 0
-220 -53 56 0
220 -219 53 56 -54 0
220 -219 -53 -56 -54 0
222 219 -53 0
222 -219 53 0
-222 219 53 0
-222 -219 -53 0
221 56 -54 0
221 -56 54 0
-221 56 54 0
-221 -56 -54 0
-223 222 0
-223 52 0
-223 51 -54 0
-223 -51 54 0
223 -222 51 54 -52 0
223 -222 -51 -54 -52 0
225 222 -51 0
225 -222 51 0
-225 222 51 0
-225 -222 -51 0
224 54 -52 0
224 -54 52 0
-224 54 52 0
-224 -54 -52 0
-226 225 0
-226 50 0
-226 49 -52 0
-226 -49 52 0
226 -225 49 52 -50 0
226 -225 -49 -52 -50 0
228 225 -49 0
228 -225 49 0
-228 225 49 0
-228 -225 -49 0
227 52 -50 0
227 -52 50 0
-227 52 50 0
-227 -52 -50 0
-229 228 0
-229 48 0
-229 47 -50 0
-229 -47 50 0
229 -228 47 50 -48 0
229 -228 -47 -50 -48 0
231 228 -47 0
231 -228 47 0
-231 228 47 0
-231 -228 -47 0
230 50 -48 0
230 -50 48 0
-230 50 48 0
-230 -50 -48 0
-232 231 0
-232 46 0
-232 45 -48 0
-232 -45 48 0
232 -231 45 48 -46 0
232 -231 -45 -48 -46 0
234 231 -45 0
234 -231 45 0
-234 231 45 0
-234 -231 -45 0
233 48 -46 0
233 -48 46 0
-233 48 46 0
-233 -48 -46 0
-235 234 0
-235 44 0
-235 43 -46 0
-235 -43 46 0
235 -234 43 46 -44 0
235 -234 -43 -46 -44 0
237 234 -43 0
237 -234 43 0
-237 234 43 0
-237 -234 -43 0
236 46 -44 0
236 -46 44 0
-236 46 44 0
-236 -46 -44 0
-238 237 0
-238 42 0
-238 41 -44 0
-238 -41 44 0
238 -237 41 44 -42 0
238 -237 -41 -44 -42 0
240 237 -41 0
240 -237 41 0
-240 237 41 0
-240 -237 -41 0
239 44 -42 0
239 -44 42 0
-239 44 42 0
-239 -44 -42 0
-241 240 0
-241 40 0
-241 39 -42 0
-241 -39 42 0
241 -240 39 42 -40 0
241 -240 -39 -42 -40 0
243 240 -39 0
243 -240 39 0
-243 240 39 0
-243 -240 -39 0
242 42 -40 0
242 -42 40 0
-242 42 40 0
-242 -42 -40 0
-244 243 0
-244 38 0
-244 37 -40 0
-244 -37 40 0
244 -243 37 40 -38 0
244 -243 -37 -40 -38 0
246 243 -37 0
246 -243 37 0
-246 243 37 0
-246 -243 -37 0
245 40 -38 0
245 -40 38 0
-245 40 38 0
-245 -40 -38 0
-247 246 0
-247 36 0
-247 35 -38 0
-247 -35 38 0
247 -246 35 38 -36 0
247 -246 -35 -38 -36 0
249 246 -35 0
249 -246 35 0
-249 246 35 0
-249 -246 -35 0
248 38 -36 0
248 -38 36 0
-248 38 36 0
-248 -38 -36 0
-250 249 0
-250 34 0
-250 33 -36 0
-250 -33 36 0
250 -249 33 36 -34 0
250 -249 -33 -36 -34 0
252 249 -33 0
252 -249 33 0
-252 249 33 0
-252 -249 -33 0
251 36 -34 0
251 -36 34 0
-251 36 34 0
-251 -36 -34 0
-253 252 0
-253 32 0
-253 31 -34 0
-253 -31 34 0
253 -252 31 34 -32 0
253 -252 -31 -34 -32 0
255 252 -31 0
255 -252 31 0
-255 252 31 0
-255 -252 -31 0
254 34 -32 0
254 -34 32 0
-254 34 32 0
-254 -34 -32 0
-256 255 0
-256 30 0
-256 29 -32 0
-256 -29 32 0
256 -255 29 32 -30 0
256 -255 -29 -32 -30 0
258 255 -29 0
258 -255 29 0
-258 255 29 0
-258 -255 -29 0
257 32 -30 0
257 -32 30 0
-257 32 30 0
-257 -32 -30 0
-259 258 0
-259 28 0
-259 27 -30 0
-259 -27 30 0
259 -258 27 30 -28 0
259 -258 -27 -30 -28 0
261 258 -27 0
261 -258 27 0
-261 258 27 0
-261 -258 -27 0
260 30 -28 0
260 -30 28 0
-260 30 28 0
-260 -30 -28 0
-262 261 0
-262 26 0
-262 25 -28 0
-262 -25 28 0
262 -261 25 28 -26 0
262 -261 -25 -28 -26 0
264 261 -25 0
264 -261 25 0
-264 261 25 0
-264 -261 -25 0
263 28 -26 0
263 -28 26 0
-263 28 26 0
-263 -28 -26 0
-265 264 0
-265 24 0
-265 23 -26 0
-265 -23 26 0
265 -264 23 26 -24 0
265 -264 -23 -26 -24 0
267 264 -23 0
267 -264 23 0
-267 264 23 0
-267 -264 -23 0
266 26 -24 0
266 -26 24 0
-266 26 24 0
-266 -26 -24 0
-268 267 0
-268 22 0
-268 21 -24 0
-268 -21 24 0
268 -267 21 24 -22 0
268 -267 -21 -24 -22 0
270 267 -21 0
270 -267 21 0
-270 267 21 0
-270 -267 -21 0
269 24 -22 0
269 -24 22 0
-269 24 22 0
-269 -24 -22 0
-271 270 0
-271 20 0
-271 19 -22 0
-271 -19 22 0
271 -270 19 22 -20 0
271 -270 -19 -22 -20 0
273 270 -19 0
273 -270 19 0
-273 270 19 0
-273 -270 -19 0
272 22 -20 0
272 -22 20 0
-272 22 20 0
-272 -22 -20 0
-274 273 0
-274 18 0
-274 17 -20 0
-274 -17 20 0
274 -273 17 20 -18 0
274 -273 -17 -20 -18 0
276 273 -17 0
276 -273 17 0
-276 273 17 0
-276 -273 -17 0
275 20 -18 0
275 -20 18 0
-275 20 18 0
-275 -20 -18 0
-277 276 0
-277 16 0
-277 15 -18 0
-277 -15 18 0
277 -276 15 18 -16 0
277 -276 -15 -18 -16 0
279 276 -15 0
279 -276 15 0
-279 276 15 0
-279 -276 -15 0
278 18 -16 0
278 -18 16 0
-278 18 16 0
-278 -18 -16 0
-280 279 0
-280 14 0
-280 13 -16 0
-280 -13 16 0
280 -279 13 16 -14 0
280 -279 -13 -16 -14 0
282 279 -13 0
282 -279 13 0
-282 279 13 0
-282 -279 -13 0
281 16 -14 0
281 -16 14 0
-281 16 14 0
-281 -16 -14 0
-283 282 0
-283 12 0
-283 11 -14 0
-283 -11 14 0
283 -282 11 14 -12 0
283 -282 -11 -14 -12 0
285 282 -11 0
285 -282 11 0
-285 282 11 0
-285 -282 -11 0
284 14 -12 0
284 -14 12 0
-284 14 12 0
-284 -14 -12 0
-286 285 0
-286 10 0
-286 9 -12 0
-286 -9 12 0
286 -285 9 12 -10 0
286 -285 -9 -12 -10 0
288 285 -9 0
288 -285 9 0
-288 285 9 0
-288 -285 -9 0
287 12 -10 0
287 -12 10 0
-287 12 10 0
-287 -12 -10 0
-289 288 0
-289 8 0
-289 7 -10 0
-289 -7 10 0
289 -288 7 10 -8 0
289 -288 -7 -10 -8 0
291 288 -7 0
291 -288 7 0
-291 288 7 0
-291 -288 -7 0
290 10 -8 0
290 -10 8 0
-290 10 8 0
-290 -10 -8 0
-292 291 0
-292 6 0
-292 5 -8 0
-292 -5 8 0
292 -291 5 8 -6 0
292 -291 -5 -8 -6 0
294 291 -5 0
294 -291 5 0
-294 291 5 0
-294 -291 -5 0
293 8 -6 0
293 -8 6 0
-293 8 6 0
-293 -8 -6 0
-295 294 0
-295 4 0
-295 3 -6 0
-295 -3 6 0
295 -294 3 6 -4 0
295 -294 -3 -6 -4 0
297 294 -3 0
297 -294 3 0
-297 294 3 0
-297 -294 -3 0
296 6 -4 0
296 -6 4 0
-296 6 4 0
-296 -6 -4 0
-298 297 0
-298 2 0
-298 1 -4 0
-298 -1 4 0
298 -297 1 4 -2 0
298 -297 -1 -4 -2 0
300 297 -1 0
300 -297 1 0
-300 297 1 0
-300 -297 -1 0
299 4 -2 0
299 -4 2 0
-299 4 2 0
-299 -4 -2 0
-300 0
-297 0
-299 0
-294 0
-296 0
-291 0
-293 0
-288 0
-290 0
-285 0
-287 0
-282 0
-284 0
-279 0
-281 0
-276 0
-278 0
-273 0
-275 0
-270 0
-272 0
-267 0
-269 0
-264 0
-266 0
-261 0
-263 0
-258 0
-260 0
-255 0
-257 0
-252 0
-254 0
-249 0
-251 0
-246 0
-248 0
-243 0
-245 0
-240 0
-242 0
-237 0
-239 0
-234 0
-236 0
-231 0
-233 0
-228 0
-230 0
-225 0
-227 0
-222 0
-224 0
-219 0
-221 0
-216 0
-218 0
-213 0
-215 0
-210 0
-212 0
-207 0
-209 0
-204 0
-206 0
-201 0
-203 0
-198 0
-200 0
-195 0
-197 0
-192 0
-194 0
-189 0
-191 0
-186 0
-188 0
-183 0
-185 0
-180 0
-182 0
-177 0
-179 0
-174 0
-176 0
-171 0
-173 0
-168 0
-170 0
-165 0
-167 0
-162 0
-164 0
-159 0
-161 0
-156 0
-158 0
-153 0
-155 0
-150 0
-152 0
-147 0
-149 0
-144 0
-146 0
-141 0
-143 0
-138 0
-140 0
-135 0
-137 0
-132 0
-134 0
-129 0
-131 0
-122 0
-128 0
